\ Generated by MPModelProtoExporter
\   Name             : SCIP
\   Format           : Free
\   Constraints      : 30
\   Variables        : 210
\     Binary         : 210
\     Integer        : 0
\     Continuous     : 0
Minimize
 Obj: +95 x[0,0] +53 x[1,0] +43 x[2,0] +30 x[3,0] +52 x[4,0] +3 x[5,0] +10 x[6,0] +21 x[7,0] +50 x[8,0] +75 x[9,0] +99 x[10,0] +24 x[11,0] +16 x[12,0] +8 x[13,0] +84 x[14,0] +3 x[15,0] +46 x[16,0] +98 x[17,0] +11 x[18,0] +99 x[19,0] +48 x[0,1] +93 x[1,1] +17 x[2,1] +9 x[3,1] +40 x[4,1] +78 x[5,1] +8 x[6,1] +98 x[7,1] +32 x[8,1] +13 x[9,1] +39 x[10,1] +98 x[11,1] +60 x[12,1] +3 x[13,1] +34 x[15,1] +79 x[16,1] +36 x[17,1] +73 x[18,1] +16 x[19,1] +64 x[0,2] +94 x[1,2] +78 x[2,2] +1 x[3,2] +74 x[4,2] +9 x[5,2] +14 x[6,2] +25 x[7,2] +56 x[8,2] +41 x[9,2] +38 x[10,2] +17 x[11,2] +8 x[12,2] +15 x[13,2] +90 x[14,2] +94 x[15,2] +37 x[16,2] +57 x[17,2] +4 x[18,2] +28 x[19,2] +51 x[0,3] +19 x[1,3] +11 x[2,3] +44 x[3,3] +93 x[4,3] +78 x[5,3] +85 x[6,3] +22 x[8,3] +73 x[9,3] +90 x[10,3] +96 x[11,3] +84 x[12,3] +52 x[13,3] +40 x[14,3] +86 x[15,3] +67 x[16,3] +12 x[17,3] +47 x[18,3] +17 x[19,3] +92 x[0,4] +81 x[1,4] +55 x[2,4] +13 x[3,4] +10 x[4,4] +27 x[5,4] +94 x[6,4] +45 x[7,4] +14 x[8,4] +51 x[9,4] +7 x[10,4] +6 x[11,4] +20 x[12,4] +99 x[13,4] +94 x[14,4] +41 x[15,4] +65 x[16,4] +75 x[17,4] +26 x[18,4] +61 x[19,4] +31 x[0,5] +34 x[1,5] +35 x[2,5] +86 x[3,5] +91 x[4,5] +4 x[5,5] +61 x[6,5] +28 x[7,5] +89 x[8,5] +30 x[9,5] +44 x[10,5] +68 x[11,5] +95 x[12,5] +73 x[13,5] +78 x[14,5] +11 x[15,5] +99 x[16,5] +69 x[17,5] +7 x[18,5] +72 x[19,5] +71 x[0,6] +14 x[1,6] +20 x[2,6] +71 x[3,6] +26 x[4,6] +75 x[5,6] +88 x[6,6] +55 x[7,6] +39 x[8,6] +60 x[9,6] +7 x[10,6] +17 x[11,6] +24 x[12,6] +99 x[13,6] +21 x[14,6] +18 x[15,6] +55 x[16,6] +89 x[17,6] +57 x[18,6] +15 x[19,6] +71 x[0,7] +83 x[1,7] +71 x[2,7] +53 x[3,7] +18 x[4,7] +97 x[5,7] +23 x[6,7] +25 x[7,7] +19 x[8,7] +94 x[9,7] +20 x[10,7] +47 x[11,7] +41 x[12,7] +9 x[13,7] +3 x[14,7] +35 x[15,7] +79 x[16,7] +97 x[17,7] +81 x[18,7] +42 x[19,7] +32 x[0,8] +17 x[1,8] +84 x[2,8] +8 x[3,8] +85 x[4,8] +49 x[5,8] +25 x[6,8] +32 x[7,8] +44 x[8,8] +29 x[9,8] +85 x[10,8] +24 x[11,8] +83 x[12,8] +87 x[13,8] +47 x[14,8] +72 x[15,8] +52 x[16,8] +3 x[17,8] +26 x[18,8] +67 x[19,8] +56 x[0,9] +19 x[1,9] +44 x[2,9] +8 x[3,9] +47 x[4,9] +26 x[5,9] +56 x[6,9] +30 x[7,9] +23 x[8,9] +19 x[9,9] +1 x[10,9] +15 x[12,9] +4 x[13,9] +6 x[14,9] +9 x[15,9] +63 x[16,9] +77 x[17,9] +58 x[18,9] +82 x[19,9] +1548 y[0] +1270 y[1] +1792 y[2] +338 y[3] +1554 y[4] +468 y[5] +565 y[6] +437 y[7] +2280 y[8] +1824 y[9] 
Subject to
 auto_c_000000000: +1 x[0,0] +1 x[0,1] +1 x[0,2] +1 x[0,3] +1 x[0,4] +1 x[0,5] +1 x[0,6] +1 x[0,7] +1 x[0,8] +1 x[0,9]  = 1
 auto_c_000000001: +1 x[1,0] +1 x[1,1] +1 x[1,2] +1 x[1,3] +1 x[1,4] +1 x[1,5] +1 x[1,6] +1 x[1,7] +1 x[1,8] +1 x[1,9]  = 1
 auto_c_000000002: +1 x[2,0] +1 x[2,1] +1 x[2,2] +1 x[2,3] +1 x[2,4] +1 x[2,5] +1 x[2,6] +1 x[2,7] +1 x[2,8] +1 x[2,9]  = 1
 auto_c_000000003: +1 x[3,0] +1 x[3,1] +1 x[3,2] +1 x[3,3] +1 x[3,4] +1 x[3,5] +1 x[3,6] +1 x[3,7] +1 x[3,8] +1 x[3,9]  = 1
 auto_c_000000004: +1 x[4,0] +1 x[4,1] +1 x[4,2] +1 x[4,3] +1 x[4,4] +1 x[4,5] +1 x[4,6] +1 x[4,7] +1 x[4,8] +1 x[4,9]  = 1
 auto_c_000000005: +1 x[5,0] +1 x[5,1] +1 x[5,2] +1 x[5,3] +1 x[5,4] +1 x[5,5] +1 x[5,6] +1 x[5,7] +1 x[5,8] +1 x[5,9]  = 1
 auto_c_000000006: +1 x[6,0] +1 x[6,1] +1 x[6,2] +1 x[6,3] +1 x[6,4] +1 x[6,5] +1 x[6,6] +1 x[6,7] +1 x[6,8] +1 x[6,9]  = 1
 auto_c_000000007: +1 x[7,0] +1 x[7,1] +1 x[7,2] +1 x[7,3] +1 x[7,4] +1 x[7,5] +1 x[7,6] +1 x[7,7] +1 x[7,8] +1 x[7,9]  = 1
 auto_c_000000008: +1 x[8,0] +1 x[8,1] +1 x[8,2] +1 x[8,3] +1 x[8,4] +1 x[8,5] +1 x[8,6] +1 x[8,7] +1 x[8,8] +1 x[8,9]  = 1
 auto_c_000000009: +1 x[9,0] +1 x[9,1] +1 x[9,2] +1 x[9,3] +1 x[9,4] +1 x[9,5] +1 x[9,6] +1 x[9,7] +1 x[9,8] +1 x[9,9]  = 1
 auto_c_000000010: +1 x[10,0] +1 x[10,1] +1 x[10,2] +1 x[10,3] +1 x[10,4] +1 x[10,5] +1 x[10,6] +1 x[10,7] +1 x[10,8] +1 x[10,9]  = 1
 auto_c_000000011: +1 x[11,0] +1 x[11,1] +1 x[11,2] +1 x[11,3] +1 x[11,4] +1 x[11,5] +1 x[11,6] +1 x[11,7] +1 x[11,8] +1 x[11,9]  = 1
 auto_c_000000012: +1 x[12,0] +1 x[12,1] +1 x[12,2] +1 x[12,3] +1 x[12,4] +1 x[12,5] +1 x[12,6] +1 x[12,7] +1 x[12,8] +1 x[12,9]  = 1
 auto_c_000000013: +1 x[13,0] +1 x[13,1] +1 x[13,2] +1 x[13,3] +1 x[13,4] +1 x[13,5] +1 x[13,6] +1 x[13,7] +1 x[13,8] +1 x[13,9]  = 1
 auto_c_000000014: +1 x[14,0] +1 x[14,1] +1 x[14,2] +1 x[14,3] +1 x[14,4] +1 x[14,5] +1 x[14,6] +1 x[14,7] +1 x[14,8] +1 x[14,9]  = 1
 auto_c_000000015: +1 x[15,0] +1 x[15,1] +1 x[15,2] +1 x[15,3] +1 x[15,4] +1 x[15,5] +1 x[15,6] +1 x[15,7] +1 x[15,8] +1 x[15,9]  = 1
 auto_c_000000016: +1 x[16,0] +1 x[16,1] +1 x[16,2] +1 x[16,3] +1 x[16,4] +1 x[16,5] +1 x[16,6] +1 x[16,7] +1 x[16,8] +1 x[16,9]  = 1
 auto_c_000000017: +1 x[17,0] +1 x[17,1] +1 x[17,2] +1 x[17,3] +1 x[17,4] +1 x[17,5] +1 x[17,6] +1 x[17,7] +1 x[17,8] +1 x[17,9]  = 1
 auto_c_000000018: +1 x[18,0] +1 x[18,1] +1 x[18,2] +1 x[18,3] +1 x[18,4] +1 x[18,5] +1 x[18,6] +1 x[18,7] +1 x[18,8] +1 x[18,9]  = 1
 auto_c_000000019: +1 x[19,0] +1 x[19,1] +1 x[19,2] +1 x[19,3] +1 x[19,4] +1 x[19,5] +1 x[19,6] +1 x[19,7] +1 x[19,8] +1 x[19,9]  = 1
 auto_c_000000020: +10 x[0,0] +18 x[1,0] +15 x[2,0] +27 x[3,0] +26 x[4,0] +20 x[5,0] +28 x[6,0] +26 x[7,0] +16 x[8,0] +16 x[9,0] +25 x[10,0] +24 x[11,0] +22 x[12,0] +29 x[13,0] +28 x[14,0] +11 x[15,0] +21 x[16,0] +10 x[17,0] +14 x[18,0] +18 x[19,0] -99 y[0]  <= 0
 auto_c_000000021: +10 x[0,1] +18 x[1,1] +15 x[2,1] +27 x[3,1] +26 x[4,1] +20 x[5,1] +28 x[6,1] +26 x[7,1] +16 x[8,1] +16 x[9,1] +25 x[10,1] +24 x[11,1] +22 x[12,1] +29 x[13,1] +28 x[14,1] +11 x[15,1] +21 x[16,1] +10 x[17,1] +14 x[18,1] +18 x[19,1] -46 y[1]  <= 0
 auto_c_000000022: +10 x[0,2] +18 x[1,2] +15 x[2,2] +27 x[3,2] +26 x[4,2] +20 x[5,2] +28 x[6,2] +26 x[7,2] +16 x[8,2] +16 x[9,2] +25 x[10,2] +24 x[11,2] +22 x[12,2] +29 x[13,2] +28 x[14,2] +11 x[15,2] +21 x[16,2] +10 x[17,2] +14 x[18,2] +18 x[19,2] -86 y[2]  <= 0
 auto_c_000000023: +10 x[0,3] +18 x[1,3] +15 x[2,3] +27 x[3,3] +26 x[4,3] +20 x[5,3] +28 x[6,3] +26 x[7,3] +16 x[8,3] +16 x[9,3] +25 x[10,3] +24 x[11,3] +22 x[12,3] +29 x[13,3] +28 x[14,3] +11 x[15,3] +21 x[16,3] +10 x[17,3] +14 x[18,3] +18 x[19,3] -29 y[3]  <= 0
 auto_c_000000024: +10 x[0,4] +18 x[1,4] +15 x[2,4] +27 x[3,4] +26 x[4,4] +20 x[5,4] +28 x[6,4] +26 x[7,4] +16 x[8,4] +16 x[9,4] +25 x[10,4] +24 x[11,4] +22 x[12,4] +29 x[13,4] +28 x[14,4] +11 x[15,4] +21 x[16,4] +10 x[17,4] +14 x[18,4] +18 x[19,4] -71 y[4]  <= 0
 auto_c_000000025: +10 x[0,5] +18 x[1,5] +15 x[2,5] +27 x[3,5] +26 x[4,5] +20 x[5,5] +28 x[6,5] +26 x[7,5] +16 x[8,5] +16 x[9,5] +25 x[10,5] +24 x[11,5] +22 x[12,5] +29 x[13,5] +28 x[14,5] +11 x[15,5] +21 x[16,5] +10 x[17,5] +14 x[18,5] +18 x[19,5] -21 y[5]  <= 0
 auto_c_000000026: +10 x[0,6] +18 x[1,6] +15 x[2,6] +27 x[3,6] +26 x[4,6] +20 x[5,6] +28 x[6,6] +26 x[7,6] +16 x[8,6] +16 x[9,6] +25 x[10,6] +24 x[11,6] +22 x[12,6] +29 x[13,6] +28 x[14,6] +11 x[15,6] +21 x[16,6] +10 x[17,6] +14 x[18,6] +18 x[19,6] -49 y[6]  <= 0
 auto_c_000000027: +10 x[0,7] +18 x[1,7] +15 x[2,7] +27 x[3,7] +26 x[4,7] +20 x[5,7] +28 x[6,7] +26 x[7,7] +16 x[8,7] +16 x[9,7] +25 x[10,7] +24 x[11,7] +22 x[12,7] +29 x[13,7] +28 x[14,7] +11 x[15,7] +21 x[16,7] +10 x[17,7] +14 x[18,7] +18 x[19,7] -38 y[7]  <= 0
 auto_c_000000028: +10 x[0,8] +18 x[1,8] +15 x[2,8] +27 x[3,8] +26 x[4,8] +20 x[5,8] +28 x[6,8] +26 x[7,8] +16 x[8,8] +16 x[9,8] +25 x[10,8] +24 x[11,8] +22 x[12,8] +29 x[13,8] +28 x[14,8] +11 x[15,8] +21 x[16,8] +10 x[17,8] +14 x[18,8] +18 x[19,8] -86 y[8]  <= 0
 auto_c_000000029: +10 x[0,9] +18 x[1,9] +15 x[2,9] +27 x[3,9] +26 x[4,9] +20 x[5,9] +28 x[6,9] +26 x[7,9] +16 x[8,9] +16 x[9,9] +25 x[10,9] +24 x[11,9] +22 x[12,9] +29 x[13,9] +28 x[14,9] +11 x[15,9] +21 x[16,9] +10 x[17,9] +14 x[18,9] +18 x[19,9] -98 y[9]  <= 0
Bounds
 0 <= x[0,0] <= 1
 0 <= x[1,0] <= 1
 0 <= x[2,0] <= 1
 0 <= x[3,0] <= 1
 0 <= x[4,0] <= 1
 0 <= x[5,0] <= 1
 0 <= x[6,0] <= 1
 0 <= x[7,0] <= 1
 0 <= x[8,0] <= 1
 0 <= x[9,0] <= 1
 0 <= x[10,0] <= 1
 0 <= x[11,0] <= 1
 0 <= x[12,0] <= 1
 0 <= x[13,0] <= 1
 0 <= x[14,0] <= 1
 0 <= x[15,0] <= 1
 0 <= x[16,0] <= 1
 0 <= x[17,0] <= 1
 0 <= x[18,0] <= 1
 0 <= x[19,0] <= 1
 0 <= x[0,1] <= 1
 0 <= x[1,1] <= 1
 0 <= x[2,1] <= 1
 0 <= x[3,1] <= 1
 0 <= x[4,1] <= 1
 0 <= x[5,1] <= 1
 0 <= x[6,1] <= 1
 0 <= x[7,1] <= 1
 0 <= x[8,1] <= 1
 0 <= x[9,1] <= 1
 0 <= x[10,1] <= 1
 0 <= x[11,1] <= 1
 0 <= x[12,1] <= 1
 0 <= x[13,1] <= 1
 0 <= x[14,1] <= 1
 0 <= x[15,1] <= 1
 0 <= x[16,1] <= 1
 0 <= x[17,1] <= 1
 0 <= x[18,1] <= 1
 0 <= x[19,1] <= 1
 0 <= x[0,2] <= 1
 0 <= x[1,2] <= 1
 0 <= x[2,2] <= 1
 0 <= x[3,2] <= 1
 0 <= x[4,2] <= 1
 0 <= x[5,2] <= 1
 0 <= x[6,2] <= 1
 0 <= x[7,2] <= 1
 0 <= x[8,2] <= 1
 0 <= x[9,2] <= 1
 0 <= x[10,2] <= 1
 0 <= x[11,2] <= 1
 0 <= x[12,2] <= 1
 0 <= x[13,2] <= 1
 0 <= x[14,2] <= 1
 0 <= x[15,2] <= 1
 0 <= x[16,2] <= 1
 0 <= x[17,2] <= 1
 0 <= x[18,2] <= 1
 0 <= x[19,2] <= 1
 0 <= x[0,3] <= 1
 0 <= x[1,3] <= 1
 0 <= x[2,3] <= 1
 0 <= x[3,3] <= 1
 0 <= x[4,3] <= 1
 0 <= x[5,3] <= 1
 0 <= x[6,3] <= 1
 0 <= x[7,3] <= 1
 0 <= x[8,3] <= 1
 0 <= x[9,3] <= 1
 0 <= x[10,3] <= 1
 0 <= x[11,3] <= 1
 0 <= x[12,3] <= 1
 0 <= x[13,3] <= 1
 0 <= x[14,3] <= 1
 0 <= x[15,3] <= 1
 0 <= x[16,3] <= 1
 0 <= x[17,3] <= 1
 0 <= x[18,3] <= 1
 0 <= x[19,3] <= 1
 0 <= x[0,4] <= 1
 0 <= x[1,4] <= 1
 0 <= x[2,4] <= 1
 0 <= x[3,4] <= 1
 0 <= x[4,4] <= 1
 0 <= x[5,4] <= 1
 0 <= x[6,4] <= 1
 0 <= x[7,4] <= 1
 0 <= x[8,4] <= 1
 0 <= x[9,4] <= 1
 0 <= x[10,4] <= 1
 0 <= x[11,4] <= 1
 0 <= x[12,4] <= 1
 0 <= x[13,4] <= 1
 0 <= x[14,4] <= 1
 0 <= x[15,4] <= 1
 0 <= x[16,4] <= 1
 0 <= x[17,4] <= 1
 0 <= x[18,4] <= 1
 0 <= x[19,4] <= 1
 0 <= x[0,5] <= 1
 0 <= x[1,5] <= 1
 0 <= x[2,5] <= 1
 0 <= x[3,5] <= 1
 0 <= x[4,5] <= 1
 0 <= x[5,5] <= 1
 0 <= x[6,5] <= 1
 0 <= x[7,5] <= 1
 0 <= x[8,5] <= 1
 0 <= x[9,5] <= 1
 0 <= x[10,5] <= 1
 0 <= x[11,5] <= 1
 0 <= x[12,5] <= 1
 0 <= x[13,5] <= 1
 0 <= x[14,5] <= 1
 0 <= x[15,5] <= 1
 0 <= x[16,5] <= 1
 0 <= x[17,5] <= 1
 0 <= x[18,5] <= 1
 0 <= x[19,5] <= 1
 0 <= x[0,6] <= 1
 0 <= x[1,6] <= 1
 0 <= x[2,6] <= 1
 0 <= x[3,6] <= 1
 0 <= x[4,6] <= 1
 0 <= x[5,6] <= 1
 0 <= x[6,6] <= 1
 0 <= x[7,6] <= 1
 0 <= x[8,6] <= 1
 0 <= x[9,6] <= 1
 0 <= x[10,6] <= 1
 0 <= x[11,6] <= 1
 0 <= x[12,6] <= 1
 0 <= x[13,6] <= 1
 0 <= x[14,6] <= 1
 0 <= x[15,6] <= 1
 0 <= x[16,6] <= 1
 0 <= x[17,6] <= 1
 0 <= x[18,6] <= 1
 0 <= x[19,6] <= 1
 0 <= x[0,7] <= 1
 0 <= x[1,7] <= 1
 0 <= x[2,7] <= 1
 0 <= x[3,7] <= 1
 0 <= x[4,7] <= 1
 0 <= x[5,7] <= 1
 0 <= x[6,7] <= 1
 0 <= x[7,7] <= 1
 0 <= x[8,7] <= 1
 0 <= x[9,7] <= 1
 0 <= x[10,7] <= 1
 0 <= x[11,7] <= 1
 0 <= x[12,7] <= 1
 0 <= x[13,7] <= 1
 0 <= x[14,7] <= 1
 0 <= x[15,7] <= 1
 0 <= x[16,7] <= 1
 0 <= x[17,7] <= 1
 0 <= x[18,7] <= 1
 0 <= x[19,7] <= 1
 0 <= x[0,8] <= 1
 0 <= x[1,8] <= 1
 0 <= x[2,8] <= 1
 0 <= x[3,8] <= 1
 0 <= x[4,8] <= 1
 0 <= x[5,8] <= 1
 0 <= x[6,8] <= 1
 0 <= x[7,8] <= 1
 0 <= x[8,8] <= 1
 0 <= x[9,8] <= 1
 0 <= x[10,8] <= 1
 0 <= x[11,8] <= 1
 0 <= x[12,8] <= 1
 0 <= x[13,8] <= 1
 0 <= x[14,8] <= 1
 0 <= x[15,8] <= 1
 0 <= x[16,8] <= 1
 0 <= x[17,8] <= 1
 0 <= x[18,8] <= 1
 0 <= x[19,8] <= 1
 0 <= x[0,9] <= 1
 0 <= x[1,9] <= 1
 0 <= x[2,9] <= 1
 0 <= x[3,9] <= 1
 0 <= x[4,9] <= 1
 0 <= x[5,9] <= 1
 0 <= x[6,9] <= 1
 0 <= x[7,9] <= 1
 0 <= x[8,9] <= 1
 0 <= x[9,9] <= 1
 0 <= x[10,9] <= 1
 0 <= x[11,9] <= 1
 0 <= x[12,9] <= 1
 0 <= x[13,9] <= 1
 0 <= x[14,9] <= 1
 0 <= x[15,9] <= 1
 0 <= x[16,9] <= 1
 0 <= x[17,9] <= 1
 0 <= x[18,9] <= 1
 0 <= x[19,9] <= 1
 0 <= y[0] <= 1
 0 <= y[1] <= 1
 0 <= y[2] <= 1
 0 <= y[3] <= 1
 0 <= y[4] <= 1
 0 <= y[5] <= 1
 0 <= y[6] <= 1
 0 <= y[7] <= 1
 0 <= y[8] <= 1
 0 <= y[9] <= 1
Binaries
 x[0,0]
 x[1,0]
 x[2,0]
 x[3,0]
 x[4,0]
 x[5,0]
 x[6,0]
 x[7,0]
 x[8,0]
 x[9,0]
 x[10,0]
 x[11,0]
 x[12,0]
 x[13,0]
 x[14,0]
 x[15,0]
 x[16,0]
 x[17,0]
 x[18,0]
 x[19,0]
 x[0,1]
 x[1,1]
 x[2,1]
 x[3,1]
 x[4,1]
 x[5,1]
 x[6,1]
 x[7,1]
 x[8,1]
 x[9,1]
 x[10,1]
 x[11,1]
 x[12,1]
 x[13,1]
 x[14,1]
 x[15,1]
 x[16,1]
 x[17,1]
 x[18,1]
 x[19,1]
 x[0,2]
 x[1,2]
 x[2,2]
 x[3,2]
 x[4,2]
 x[5,2]
 x[6,2]
 x[7,2]
 x[8,2]
 x[9,2]
 x[10,2]
 x[11,2]
 x[12,2]
 x[13,2]
 x[14,2]
 x[15,2]
 x[16,2]
 x[17,2]
 x[18,2]
 x[19,2]
 x[0,3]
 x[1,3]
 x[2,3]
 x[3,3]
 x[4,3]
 x[5,3]
 x[6,3]
 x[7,3]
 x[8,3]
 x[9,3]
 x[10,3]
 x[11,3]
 x[12,3]
 x[13,3]
 x[14,3]
 x[15,3]
 x[16,3]
 x[17,3]
 x[18,3]
 x[19,3]
 x[0,4]
 x[1,4]
 x[2,4]
 x[3,4]
 x[4,4]
 x[5,4]
 x[6,4]
 x[7,4]
 x[8,4]
 x[9,4]
 x[10,4]
 x[11,4]
 x[12,4]
 x[13,4]
 x[14,4]
 x[15,4]
 x[16,4]
 x[17,4]
 x[18,4]
 x[19,4]
 x[0,5]
 x[1,5]
 x[2,5]
 x[3,5]
 x[4,5]
 x[5,5]
 x[6,5]
 x[7,5]
 x[8,5]
 x[9,5]
 x[10,5]
 x[11,5]
 x[12,5]
 x[13,5]
 x[14,5]
 x[15,5]
 x[16,5]
 x[17,5]
 x[18,5]
 x[19,5]
 x[0,6]
 x[1,6]
 x[2,6]
 x[3,6]
 x[4,6]
 x[5,6]
 x[6,6]
 x[7,6]
 x[8,6]
 x[9,6]
 x[10,6]
 x[11,6]
 x[12,6]
 x[13,6]
 x[14,6]
 x[15,6]
 x[16,6]
 x[17,6]
 x[18,6]
 x[19,6]
 x[0,7]
 x[1,7]
 x[2,7]
 x[3,7]
 x[4,7]
 x[5,7]
 x[6,7]
 x[7,7]
 x[8,7]
 x[9,7]
 x[10,7]
 x[11,7]
 x[12,7]
 x[13,7]
 x[14,7]
 x[15,7]
 x[16,7]
 x[17,7]
 x[18,7]
 x[19,7]
 x[0,8]
 x[1,8]
 x[2,8]
 x[3,8]
 x[4,8]
 x[5,8]
 x[6,8]
 x[7,8]
 x[8,8]
 x[9,8]
 x[10,8]
 x[11,8]
 x[12,8]
 x[13,8]
 x[14,8]
 x[15,8]
 x[16,8]
 x[17,8]
 x[18,8]
 x[19,8]
 x[0,9]
 x[1,9]
 x[2,9]
 x[3,9]
 x[4,9]
 x[5,9]
 x[6,9]
 x[7,9]
 x[8,9]
 x[9,9]
 x[10,9]
 x[11,9]
 x[12,9]
 x[13,9]
 x[14,9]
 x[15,9]
 x[16,9]
 x[17,9]
 x[18,9]
 x[19,9]
 y[0]
 y[1]
 y[2]
 y[3]
 y[4]
 y[5]
 y[6]
 y[7]
 y[8]
 y[9]
End
